Optimizer called with the following parameters:
{'focal_plane_mask': {'field_stop_radius': None,
                      'grayscale': True,
                      'num_pix': 150,
                      'radius': 3.8000000000000003},
 'image': {'bandwidth': 0.15,
           'contrast': 10,
           'iwa': 3.7,
           'num_wavelengths': 5,
           'owa': 14.0,
           'resolution': 2},
 'instrument': {'inst_name': 'USORT'},
 'lyot_stop': {'alignment_tolerance': 0,
               'filename': 'USORT/LS_USORT_hex_ID0000_OD0990_ovsamp16_N0128.fits',
               'num_lyot_stops': 1},
 'method': {'edge_width_for_prior': 2,
            'ending_scale': 1,
            'force_no_hermitian_symmetry': False,
            'force_no_x_mirror_symmetry': False,
            'force_no_y_mirror_symmetry': False,
            'initial_throughput_estimate': 1,
            'maximize_planet_throughput': True,
            'num_throughput_iterations': 2,
            'starting_scale': 1},
 'pupil': {'N': 128,
           'filename': 'USORT/TelAp_USORT_offaxis_ovsamp16_N0128.fits'},
 'solver': {'crossover': 0,
            'method': 2,
            'num_threads': 0}}

File organization:
{'analysis_dir': '/user/bnickson/GitHub/LUVex_TelAps/aplc_optimization/surveys/usort_offaxis_survey_N0128_telserv3/FPM38_IWA37/analysis',
 'drivers_dir': '/user/bnickson/GitHub/LUVex_TelAps/aplc_optimization/surveys/usort_offaxis_survey_N0128_telserv3/FPM38_IWA37/drivers',
 'input_files_dir': '/user/bnickson/GitHub/LUVex_TelAps/aplc_optimization/masks',
 'log_dir': '/user/bnickson/GitHub/LUVex_TelAps/aplc_optimization/surveys/usort_offaxis_survey_N0128_telserv3/FPM38_IWA37/logs',
 'solution_dir': '/user/bnickson/GitHub/LUVex_TelAps/aplc_optimization/surveys/usort_offaxis_survey_N0128_telserv3/FPM38_IWA37/solutions',
 'survey_dir': '/user/bnickson/GitHub/LUVex_TelAps/aplc_optimization/surveys/usort_offaxis_survey_N0128_telserv3/FPM38_IWA37'}

Telescope pupil:
   Mirror symmetry in x: yes
   Mirror symmetry in y: yes

Lyot stop #0:
   Mirror symmetry in x: yes
Lyot stop #0:
   Mirror symmetry in y: yes

Complete APLC:
   Mirror symmetry in x: yes
   Mirror symmetry in y: yes

Starting optimization at scale 1 with 2726 variables and 2875 constraints.
Creating model...
Set parameter Username
Academic license - for non-commercial use only - expires 2024-10-25
Set parameter Crossover to value 0
Set parameter Method to value 2
Calculating and adding constraints...
Wavelength 1/5; Variable 1000/2726
Wavelength 1/5; Variable 2000/2726
Wavelength 2/5; Variable 1000/2726
Wavelength 2/5; Variable 2000/2726
Wavelength 3/5; Variable 1000/2726
Wavelength 3/5; Variable 2000/2726
Wavelength 4/5; Variable 1000/2726
Wavelength 4/5; Variable 2000/2726
Wavelength 5/5; Variable 1000/2726
Wavelength 5/5; Variable 2000/2726
Start optimization...
Gurobi Optimizer version 10.0.3 build v10.0.3rc0 (linux64)

CPU model: Intel(R) Xeon(R) Gold 6146 CPU @ 3.20GHz, instruction set [SSE2|AVX|AVX2|AVX512]
Thread count: 24 physical cores, 48 logical processors, using up to 24 threads

Optimize a model with 5750 rows, 2726 columns and 15674500 nonzeros
Model fingerprint: 0x163da2f1
Coefficient statistics:
  Matrix range     [2e-12, 6e-04]
  Objective range  [4e-03, 1e+00]
  Bounds range     [1e+00, 1e+00]
  RHS range        [1e-05, 1e-05]
Presolve time: 5.22s
Presolved: 2726 rows, 8476 columns, 15677226 nonzeros
Error: invalid user locale; possible fix is to set the system environment
       variable 'LC_ALL' to a valid locale (e.g., to 'C')
Ordering time: 0.07s

Barrier statistics:
 AA' NZ     : 3.714e+06
 Factor NZ  : 3.717e+06 (roughly 34 MB of memory)
 Factor Ops : 6.756e+09 (less than 1 second per iteration)
 Threads    : 24

                  Objective                Residual
Iter       Primal          Dual         Primal    Dual     Compl     Time
   0   5.56433828e+03  0.00000000e+00  0.00e+00 0.00e+00  9.65e-01     7s
   1   2.93419058e+03  7.17486562e+02  0.00e+00 1.45e-01  3.29e-01     7s
   2   2.04599357e+03  1.30192342e+03  0.00e+00 4.68e-02  1.01e-01     8s
   3   1.76327744e+03  1.39480382e+03  0.00e+00 3.00e-02  5.14e-02     8s
   4   1.68563838e+03  1.41200020e+03  0.00e+00 2.63e-02  3.98e-02     8s
   5   1.65577354e+03  1.41518221e+03  0.00e+00 2.50e-02  3.62e-02     9s
   6   1.61492021e+03  1.41861587e+03  0.00e+00 2.40e-02  3.24e-02     9s
   7   1.57509364e+03  1.42984966e+03  0.00e+00 1.99e-02  2.63e-02     9s
   8   1.54558138e+03  1.43312220e+03  0.00e+00 1.81e-02  2.28e-02    10s
   9   1.51776868e+03  1.43389628e+03  0.00e+00 1.68e-02  2.02e-02    10s
  10   1.49313208e+03  1.43349433e+03  0.00e+00 1.44e-02  1.71e-02    10s
  11   1.47833489e+03  1.43160086e+03  0.00e+00 1.25e-02  1.49e-02    11s
  12   1.44199823e+03  1.42623920e+03  0.00e+00 1.09e-02  1.19e-02    11s
  13   1.42930346e+03  1.42083147e+03  0.00e+00 9.96e-03  1.08e-02    11s
  14   1.40760411e+03  1.41506109e+03  0.00e+00 8.68e-03  8.81e-03    12s
  15   1.39062688e+03  1.40777462e+03  0.00e+00 7.62e-03  7.34e-03    12s
  16   1.37806653e+03  1.39705734e+03  0.00e+00 6.18e-03  5.92e-03    12s
  17   1.36407786e+03  1.39462109e+03  0.00e+00 5.87e-03  4.99e-03    12s
  18   1.35518237e+03  1.38823203e+03  0.00e+00 5.07e-03  4.04e-03    13s
  19   1.35139162e+03  1.38682297e+03  0.00e+00 4.92e-03  3.87e-03    13s
  20   1.34706255e+03  1.37881947e+03  0.00e+00 4.06e-03  3.16e-03    13s
  21   1.34144600e+03  1.36959587e+03  0.00e+00 3.24e-03  2.48e-03    14s
  22   1.33791356e+03  1.36248322e+03  0.00e+00 2.64e-03  1.98e-03    14s
  23   1.33632737e+03  1.35622125e+03  0.00e+00 2.11e-03  1.60e-03    15s
  24   1.33454833e+03  1.35329685e+03  0.00e+00 1.86e-03  1.35e-03    15s
  25   1.33373715e+03  1.34799303e+03  0.00e+00 1.41e-03  1.04e-03    15s
  26   1.33303128e+03  1.34642747e+03  0.00e+00 1.29e-03  9.32e-04    16s
  27   1.33243159e+03  1.34483487e+03  0.00e+00 1.16e-03  8.33e-04    16s
  28   1.33160277e+03  1.34097367e+03  0.00e+00 8.57e-04  6.16e-04    16s
  29   1.33128519e+03  1.33863786e+03  0.00e+00 6.73e-04  4.89e-04    17s
  30   1.33075685e+03  1.33606724e+03  0.00e+00 4.74e-04  3.38e-04    17s
  31   1.33041989e+03  1.33451476e+03  0.00e+00 3.56e-04  2.48e-04    18s
  32   1.33026076e+03  1.33356368e+03  0.00e+00 2.85e-04  1.97e-04    18s
  33   1.33021602e+03  1.33236616e+03  0.00e+00 1.95e-04  1.44e-04    18s
  34   1.33004878e+03  1.33176672e+03  0.00e+00 1.50e-04  1.05e-04    19s
  35   1.32998024e+03  1.33135823e+03  0.00e+00 1.18e-04  8.06e-05    19s
  36   1.32990235e+03  1.33071181e+03  0.00e+00 6.83e-05  4.61e-05    20s
  37   1.32984475e+03  1.33039761e+03  0.00e+00 4.53e-05  2.92e-05    20s
  38   1.32982601e+03  1.33022491e+03  3.15e-06 3.26e-05  2.09e-05    20s
  39   1.32981966e+03  1.33011312e+03  4.44e-06 2.43e-05  1.61e-05    21s
  40   1.32980072e+03  1.32993595e+03  5.18e-06 1.12e-05  7.42e-06    21s
  41   1.32979348e+03  1.32984959e+03  6.64e-06 4.88e-06  3.49e-06    21s
  42   1.32979345e+03  1.32984951e+03  1.00e-05 4.88e-06  3.49e-06    22s
  43   1.32979198e+03  1.32982800e+03  1.15e-05 3.29e-06  2.52e-06    22s
  44   1.32979185e+03  1.32982415e+03  1.75e-05 3.01e-06  1.97e-06    23s
  45   1.32979177e+03  1.32982414e+03  3.00e-05 3.00e-06  1.97e-06    24s
  46   1.32979143e+03  1.32981712e+03  4.02e-05 2.48e-06  1.73e-06    24s
  47   1.32979151e+03  1.32981710e+03  4.71e-05 2.48e-06  1.72e-06    25s
  48   1.32979142e+03  1.32980961e+03  4.37e-05 1.91e-06  1.44e-06    26s
  49   1.32979164e+03  1.32980892e+03  5.41e-05 1.86e-06  1.41e-06    26s
  50   1.32979043e+03  1.32980549e+03  7.48e-05 1.61e-06  1.23e-06    27s
  51   1.32979055e+03  1.32980521e+03  8.91e-05 1.59e-06  1.20e-06    27s
  52   1.32979073e+03  1.32980272e+03  1.13e-04 1.40e-06  1.10e-06    28s
  53   1.32979052e+03  1.32980229e+03  1.14e-04 1.37e-06  1.06e-06    29s
  54   1.32978927e+03  1.32980124e+03  1.34e-04 1.30e-06  9.92e-07    29s
  55   1.32978923e+03  1.32980104e+03  1.32e-04 1.28e-06  9.82e-07    30s
  56   1.32978930e+03  1.32980104e+03  1.12e-04 1.28e-06  9.82e-07    31s
  57   1.32978927e+03  1.32980103e+03  1.08e-04 1.28e-06  9.81e-07    31s
  58   1.32978926e+03  1.32980069e+03  1.19e-04 1.25e-06  9.64e-07    32s
  59   1.32978898e+03  1.32979992e+03  1.26e-04 1.20e-06  9.27e-07    33s
  60   1.32978891e+03  1.32979958e+03  1.27e-04 1.17e-06  9.04e-07    34s
  61   1.32978893e+03  1.32979958e+03  1.28e-04 1.17e-06  9.04e-07    34s
  62   1.32978896e+03  1.32979958e+03  1.28e-04 1.17e-06  9.03e-07    35s
  63   1.32978871e+03  1.32979897e+03  1.25e-04 1.13e-06  8.78e-07    36s
  64   1.32978801e+03  1.32979810e+03  1.74e-04 1.06e-06  8.11e-07    36s
  65   1.32978788e+03  1.32979763e+03  1.48e-04 1.03e-06  7.61e-07    37s
  66   1.32978798e+03  1.32979759e+03  1.56e-04 1.02e-06  7.58e-07    38s
  67   1.32978804e+03  1.32979730e+03  1.65e-04 1.00e-06  7.49e-07    39s
  68   1.32978784e+03  1.32979728e+03  1.64e-04 1.00e-06  7.48e-07    39s
  69   1.32978790e+03  1.32979724e+03  1.66e-04 9.99e-07  7.46e-07    40s
  70   1.32978739e+03  1.32979573e+03  2.07e-04 8.87e-07  6.51e-07    41s
  71   1.32978732e+03  1.32979544e+03  2.04e-04 8.66e-07  6.41e-07    41s
  72   1.32978752e+03  1.32979544e+03  2.01e-04 8.66e-07  6.41e-07    42s
  73   1.32978744e+03  1.32979535e+03  1.93e-04 8.59e-07  6.37e-07    43s
  74   1.32978842e+03  1.32979535e+03  2.16e-04 8.59e-07  6.37e-07    43s
  75   1.32978856e+03  1.32979374e+03  2.15e-04 7.40e-07  5.72e-07    44s
  76   1.32978771e+03  1.32979317e+03  1.54e-04 6.98e-07  5.37e-07    45s
  77   1.32978802e+03  1.32979265e+03  1.51e-04 6.59e-07  5.15e-07    45s
  78   1.32978774e+03  1.32979244e+03  1.56e-04 6.44e-07  5.00e-07    46s
  79   1.32978769e+03  1.32979218e+03  1.46e-04 6.25e-07  4.79e-07    47s
  80   1.32978765e+03  1.32979193e+03  1.45e-04 6.06e-07  4.70e-07    47s
  81   1.32978739e+03  1.32979193e+03  1.37e-04 6.06e-07  4.69e-07    48s
  82   1.32978724e+03  1.32979135e+03  1.35e-04 5.63e-07  4.40e-07    48s
  83   1.32978743e+03  1.32979054e+03  1.38e-04 5.04e-07  4.06e-07    49s
  84   1.32978693e+03  1.32978970e+03  1.49e-04 4.42e-07  3.69e-07    49s
  85   1.32978664e+03  1.32978959e+03  1.78e-04 4.34e-07  3.62e-07    50s
  86   1.32978664e+03  1.32978958e+03  1.77e-04 4.33e-07  3.61e-07    51s
  87   1.32978679e+03  1.32978949e+03  1.51e-04 4.27e-07  3.47e-07    51s
  88   1.32978681e+03  1.32978946e+03  1.42e-04 4.24e-07  3.45e-07    52s
  89   1.32978613e+03  1.32978939e+03  1.52e-04 4.19e-07  3.40e-07    52s
  90   1.32978619e+03  1.32978938e+03  1.73e-04 4.19e-07  3.39e-07    53s
  91   1.32978615e+03  1.32978933e+03  1.75e-04 4.15e-07  3.37e-07    53s
  92   1.32978610e+03  1.32978880e+03  1.54e-04 3.76e-07  3.03e-07    54s
  93   1.32978567e+03  1.32978880e+03  1.22e-04 3.76e-07  3.03e-07    54s
  94   1.32978573e+03  1.32978880e+03  1.21e-04 3.76e-07  3.03e-07    55s
  95   1.32978577e+03  1.32978808e+03  1.65e-04 3.23e-07  2.74e-07    56s
  96   1.32978599e+03  1.32978745e+03  1.53e-04 2.76e-07  2.43e-07    57s
  97   1.32978612e+03  1.32978699e+03  2.30e-04 2.43e-07  2.15e-07    58s
  98   1.32978547e+03  1.32978699e+03  2.41e-04 2.43e-07  2.15e-07    59s
  99   1.32978450e+03  1.32978681e+03  2.85e-04 2.29e-07  2.01e-07    60s
 100   1.32978578e+03  1.32978676e+03  3.11e-04 2.25e-07  1.96e-07    61s
 101   1.32978566e+03  1.32978669e+03  2.89e-04 2.21e-07  1.89e-07    61s
 102   1.32978537e+03  1.32978656e+03  2.86e-04 2.11e-07  1.84e-07    62s
 103   1.32978525e+03  1.32978655e+03  2.84e-04 2.10e-07  1.83e-07    63s
 104   1.32978553e+03  1.32978652e+03  2.81e-04 2.08e-07  1.81e-07    64s
 105   1.32978553e+03  1.32978646e+03  2.67e-04 2.03e-07  1.78e-07    64s
 106   1.32978532e+03  1.32978646e+03  2.81e-04 2.03e-07  1.78e-07    65s
 107   1.32978522e+03  1.32978645e+03  2.81e-04 2.03e-07  1.78e-07    65s
 108   1.32978506e+03  1.32978645e+03  3.03e-04 2.03e-07  1.77e-07    66s
 109   1.32978489e+03  1.32978634e+03  3.02e-04 1.95e-07  1.72e-07    67s
 110   1.32978485e+03  1.32978634e+03  3.19e-04 1.94e-07  1.72e-07    67s
 111   1.32978474e+03  1.32978634e+03  3.06e-04 1.94e-07  1.72e-07    68s

Barrier performed 111 iterations in 68.03 seconds (67.38 work units)
Sub-optimal termination - objective 1.32979185e+03

Optimization finished!
Restarting optimization for throughput iteration 1...
Gurobi Optimizer version 10.0.3 build v10.0.3rc0 (linux64)

CPU model: Intel(R) Xeon(R) Gold 6146 CPU @ 3.20GHz, instruction set [SSE2|AVX|AVX2|AVX512]
Thread count: 24 physical cores, 48 logical processors, using up to 24 threads

Optimize a model with 5750 rows, 2726 columns and 15674500 nonzeros
Model fingerprint: 0x719c3fea
Coefficient statistics:
  Matrix range     [2e-12, 6e-04]
  Objective range  [4e-03, 1e+00]
  Bounds range     [1e+00, 1e+00]
  RHS range        [6e-06, 6e-06]
Presolve removed 0 rows and 0 columns (presolve time = 5s) ...
Presolve time: 5.67s
Presolved: 2726 rows, 8476 columns, 15677226 nonzeros
Ordering time: 0.04s

Barrier statistics:
 AA' NZ     : 3.714e+06
 Factor NZ  : 3.717e+06 (roughly 34 MB of memory)
 Factor Ops : 6.756e+09 (less than 1 second per iteration)
 Threads    : 24

                  Objective                Residual
Iter       Primal          Dual         Primal    Dual     Compl     Time
   0   5.50438738e+03  0.00000000e+00  0.00e+00 0.00e+00  9.58e-01     7s
   1   2.87711175e+03  7.18742129e+02  0.00e+00 1.43e-01  3.24e-01     8s
   2   2.00696824e+03  1.28171887e+03  0.00e+00 4.88e-02  1.04e-01     8s
   3   1.75192513e+03  1.35864291e+03  0.00e+00 3.61e-02  6.22e-02     9s
   4   1.71094879e+03  1.38289344e+03  0.00e+00 3.14e-02  5.31e-02     9s
   5   1.66838045e+03  1.38581634e+03  0.00e+00 2.95e-02  4.97e-02     9s
   6   1.61084498e+03  1.40044052e+03  0.00e+00 2.49e-02  4.17e-02     9s
   7   1.51026057e+03  1.40031969e+03  0.00e+00 2.18e-02  3.39e-02    10s
   8   1.45253139e+03  1.39141517e+03  0.00e+00 1.94e-02  2.99e-02    10s
   9   1.41835668e+03  1.38671427e+03  0.00e+00 1.79e-02  2.70e-02    11s
  10   1.38590096e+03  1.37225503e+03  0.00e+00 1.46e-02  2.23e-02    11s
  11   1.35919853e+03  1.35549341e+03  0.00e+00 1.29e-02  2.01e-02    11s
  12   1.33119841e+03  1.34554797e+03  0.00e+00 1.16e-02  1.77e-02    12s
  13   1.28905789e+03  1.33091395e+03  0.00e+00 1.05e-02  1.48e-02    12s
  14   1.26456963e+03  1.32282003e+03  0.00e+00 9.84e-03  1.32e-02    12s
  15   1.26006896e+03  1.30863946e+03  0.00e+00 8.71e-03  1.20e-02    12s
  16   1.23292045e+03  1.29158444e+03  0.00e+00 7.55e-03  9.34e-03    13s
  17   1.22724872e+03  1.28464318e+03  0.00e+00 6.99e-03  8.57e-03    13s
  18   1.20995336e+03  1.27386556e+03  0.00e+00 6.25e-03  7.02e-03    13s
  19   1.20414477e+03  1.25060476e+03  0.00e+00 4.72e-03  5.52e-03    14s
  20   1.20126177e+03  1.24789710e+03  0.00e+00 4.55e-03  5.24e-03    14s
  21   1.19500578e+03  1.23313702e+03  0.00e+00 3.63e-03  4.19e-03    14s
  22   1.19205317e+03  1.22922941e+03  0.00e+00 3.41e-03  3.91e-03    15s
  23   1.18776779e+03  1.22383390e+03  0.00e+00 3.12e-03  3.48e-03    15s
  24   1.18413328e+03  1.22213676e+03  0.00e+00 3.02e-03  3.21e-03    15s
  25   1.17942963e+03  1.21263999e+03  0.00e+00 2.49e-03  2.56e-03    16s
  26   1.17374336e+03  1.20310658e+03  0.00e+00 1.98e-03  1.82e-03    16s
  27   1.17187210e+03  1.19290869e+03  0.00e+00 1.44e-03  1.37e-03    17s
  28   1.17095807e+03  1.19113267e+03  0.00e+00 1.35e-03  1.24e-03    17s
  29   1.16977865e+03  1.18779416e+03  0.00e+00 1.17e-03  1.06e-03    18s
  30   1.16869494e+03  1.18579015e+03  0.00e+00 1.07e-03  9.18e-04    18s
  31   1.16772171e+03  1.18162844e+03  0.00e+00 8.60e-04  7.27e-04    18s
  32   1.16674924e+03  1.17971437e+03  0.00e+00 7.62e-04  6.14e-04    19s
  33   1.16632378e+03  1.17716399e+03  0.00e+00 6.40e-04  5.36e-04    19s
  34   1.16544099e+03  1.17480247e+03  0.00e+00 5.21e-04  4.04e-04    19s
  35   1.16525231e+03  1.17355042e+03  0.00e+00 4.60e-04  3.57e-04    20s
  36   1.16486887e+03  1.17225427e+03  0.00e+00 3.97e-04  2.95e-04    20s
  37   1.16481361e+03  1.17165862e+03  0.00e+00 3.68e-04  2.76e-04    21s
  38   1.16462754e+03  1.17015893e+03  0.00e+00 2.97e-04  2.24e-04    21s
  39   1.16460763e+03  1.16920923e+03  0.00e+00 2.54e-04  2.03e-04    21s
  40   1.16437007e+03  1.16877521e+03  0.00e+00 2.33e-04  1.74e-04    22s
  41   1.16403077e+03  1.16748953e+03  1.21e-06 1.73e-04  1.15e-04    22s
  42   1.16392335e+03  1.16645076e+03  1.15e-06 1.25e-04  8.26e-05    23s
  43   1.16384792e+03  1.16538268e+03  2.69e-06 7.68e-05  5.28e-05    23s
  44   1.16380611e+03  1.16506266e+03  5.76e-06 6.24e-05  4.23e-05    23s
  45   1.16377468e+03  1.16482502e+03  8.05e-06 5.17e-05  3.44e-05    24s
  46   1.16373951e+03  1.16442714e+03  6.06e-06 3.35e-05  2.21e-05    24s
  47   1.16370587e+03  1.16416511e+03  1.07e-05 2.19e-05  1.37e-05    25s
  48   1.16370554e+03  1.16411019e+03  1.45e-05 1.94e-05  1.24e-05    25s
  49   1.16370355e+03  1.16406391e+03  1.64e-05 1.73e-05  1.12e-05    26s
  50   1.16370255e+03  1.16401872e+03  2.26e-05 1.53e-05  1.02e-05    26s
  51   1.16369773e+03  1.16396500e+03  1.96e-05 1.30e-05  8.60e-06    27s
  52   1.16369447e+03  1.16392847e+03  2.51e-05 1.13e-05  7.53e-06    28s
  53   1.16369010e+03  1.16387889e+03  2.30e-05 9.15e-06  6.07e-06    28s
  54   1.16368530e+03  1.16382469e+03  4.26e-05 6.74e-06  4.45e-06    29s
  55   1.16368518e+03  1.16382239e+03  4.91e-05 6.64e-06  4.39e-06    30s
  56   1.16368439e+03  1.16381437e+03  5.59e-05 6.28e-06  4.15e-06    30s
  57   1.16368295e+03  1.16380464e+03  5.10e-05 5.85e-06  3.85e-06    31s
  58   1.16368291e+03  1.16380349e+03  5.01e-05 5.80e-06  3.82e-06    31s
  59   1.16368276e+03  1.16380081e+03  5.02e-05 5.68e-06  3.75e-06    32s
  60   1.16368262e+03  1.16379958e+03  5.10e-05 5.63e-06  2.94e-06    32s
  61   1.16368269e+03  1.16379590e+03  1.20e-04 5.47e-06  2.86e-06    33s
  62   1.16368278e+03  1.16379474e+03  1.01e-04 5.42e-06  2.83e-06    34s
  63   1.16368443e+03  1.16379338e+03  1.39e-04 5.35e-06  2.80e-06    34s
  64   1.16368404e+03  1.16379018e+03  1.83e-04 5.21e-06  2.68e-06    34s
  65   1.16368413e+03  1.16378936e+03  1.70e-04 5.18e-06  2.66e-06    35s
  66   1.16368186e+03  1.16378367e+03  1.87e-04 4.93e-06  2.53e-06    36s
  67   1.16368157e+03  1.16378367e+03  1.96e-04 4.93e-06  2.53e-06    36s
  68   1.16368170e+03  1.16378367e+03  1.97e-04 4.93e-06  2.53e-06    37s
  69   1.16368200e+03  1.16377332e+03  2.39e-04 4.47e-06  2.32e-06    38s
  70   1.16368131e+03  1.16377226e+03  3.05e-04 4.42e-06  2.28e-06    38s
  71   1.16368119e+03  1.16377222e+03  2.92e-04 4.42e-06  2.28e-06    39s
  72   1.16368127e+03  1.16377177e+03  3.19e-04 4.40e-06  2.26e-06    40s
  73   1.16368079e+03  1.16377168e+03  3.26e-04 4.40e-06  2.25e-06    40s
  74   1.16368078e+03  1.16377146e+03  3.26e-04 4.39e-06  2.25e-06    41s
  75   1.16368129e+03  1.16377115e+03  3.90e-04 4.37e-06  2.24e-06    42s
  76   1.16368150e+03  1.16376457e+03  3.63e-04 4.08e-06  2.10e-06    43s
  77   1.16368154e+03  1.16376457e+03  3.22e-04 4.08e-06  2.10e-06    44s
  78   1.16368091e+03  1.16376149e+03  3.37e-04 3.95e-06  2.03e-06    45s
  79   1.16368022e+03  1.16376149e+03  3.59e-04 3.95e-06  2.03e-06    45s
  80   1.16367972e+03  1.16374891e+03  3.71e-04 3.39e-06  1.74e-06    46s
  81   1.16367968e+03  1.16374625e+03  3.53e-04 3.27e-06  1.70e-06    47s
  82   1.16367978e+03  1.16374255e+03  3.94e-04 3.11e-06  1.61e-06    48s
  83   1.16367931e+03  1.16374194e+03  3.93e-04 3.08e-06  1.59e-06    49s
  84   1.16367874e+03  1.16373948e+03  3.84e-04 2.97e-06  1.54e-06    50s
  85   1.16367914e+03  1.16373856e+03  3.94e-04 2.93e-06  1.52e-06    50s
  86   1.16367880e+03  1.16373833e+03  4.03e-04 2.92e-06  1.52e-06    51s
  87   1.16367906e+03  1.16373789e+03  3.99e-04 2.90e-06  1.51e-06    51s
  88   1.16367861e+03  1.16373779e+03  3.64e-04 2.90e-06  1.50e-06    52s
  89   1.16367782e+03  1.16373430e+03  3.38e-04 2.74e-06  1.43e-06    52s
  90   1.16367791e+03  1.16373155e+03  3.29e-04 2.62e-06  1.39e-06    53s
  91   1.16367800e+03  1.16372822e+03  3.03e-04 2.47e-06  1.32e-06    53s
  92   1.16367839e+03  1.16372731e+03  3.05e-04 2.43e-06  1.30e-06    54s
  93   1.16367849e+03  1.16372727e+03  3.04e-04 2.43e-06  1.30e-06    54s
  94   1.16367829e+03  1.16372565e+03  3.19e-04 2.36e-06  1.25e-06    55s
  95   1.16367749e+03  1.16372520e+03  3.68e-04 2.34e-06  1.23e-06    55s
  96   1.16367719e+03  1.16372449e+03  3.53e-04 2.31e-06  1.21e-06    56s
  97   1.16367723e+03  1.16372346e+03  3.53e-04 2.26e-06  1.19e-06    56s
  98   1.16367742e+03  1.16372343e+03  3.58e-04 2.26e-06  1.19e-06    57s
  99   1.16367691e+03  1.16372237e+03  3.47e-04 2.21e-06  1.16e-06    58s
 100   1.16367745e+03  1.16372088e+03  3.67e-04 2.15e-06  1.11e-06    59s
 101   1.16367743e+03  1.16372061e+03  3.48e-04 2.14e-06  1.11e-06    59s
 102   1.16367784e+03  1.16372043e+03  3.45e-04 2.13e-06  1.10e-06    60s
 103   1.16367707e+03  1.16371879e+03  3.03e-04 2.06e-06  1.05e-06    61s
 104   1.16367682e+03  1.16371876e+03  3.22e-04 2.05e-06  1.05e-06    62s
 105   1.16367680e+03  1.16371870e+03  3.23e-04 2.05e-06  1.05e-06    62s
 106   1.16367659e+03  1.16371817e+03  3.18e-04 2.03e-06  1.04e-06    63s
 107   1.16367656e+03  1.16371802e+03  3.09e-04 2.02e-06  1.04e-06    64s
 108   1.16367714e+03  1.16371781e+03  2.83e-04 2.01e-06  1.03e-06    64s
 109   1.16367706e+03  1.16371749e+03  2.91e-04 2.00e-06  1.02e-06    65s
 110   1.16367687e+03  1.16371729e+03  2.86e-04 1.99e-06  1.01e-06    66s
 111   1.16367785e+03  1.16371435e+03  3.78e-04 1.86e-06  9.20e-07    66s
 112   1.16367869e+03  1.16371435e+03  4.19e-04 1.86e-06  9.19e-07    67s
 113   1.16367854e+03  1.16371427e+03  4.00e-04 1.86e-06  9.18e-07    68s
 114   1.16367839e+03  1.16371205e+03  3.96e-04 1.76e-06  8.81e-07    68s
 115   1.16367817e+03  1.16371175e+03  4.08e-04 1.75e-06  8.75e-07    69s
 116   1.16367810e+03  1.16371154e+03  4.23e-04 1.74e-06  8.71e-07    70s
 117   1.16367689e+03  1.16371008e+03  4.21e-04 1.67e-06  8.40e-07    71s
 118   1.16367601e+03  1.16370874e+03  4.62e-04 1.61e-06  8.11e-07    71s
 119   1.16367602e+03  1.16370874e+03  4.71e-04 1.61e-06  8.11e-07    72s
 120   1.16367599e+03  1.16370866e+03  4.71e-04 1.61e-06  8.09e-07    73s
 121   1.16367535e+03  1.16370796e+03  3.71e-04 1.58e-06  7.90e-07    73s
 122   1.16367451e+03  1.16370770e+03  3.49e-04 1.57e-06  7.79e-07    74s
 123   1.16367467e+03  1.16370767e+03  3.48e-04 1.56e-06  7.79e-07    75s
 124   1.16367410e+03  1.16370746e+03  3.28e-04 1.55e-06  7.72e-07    75s
 125   1.16367407e+03  1.16370558e+03  3.33e-04 1.47e-06  7.41e-07    76s
 126   1.16367410e+03  1.16370519e+03  3.47e-04 1.45e-06  7.33e-07    77s
 127   1.16367421e+03  1.16370492e+03  3.50e-04 1.44e-06  7.26e-07    77s
 128   1.16367373e+03  1.16370350e+03  4.77e-04 1.38e-06  6.87e-07    78s
 129   1.16367307e+03  1.16370341e+03  4.88e-04 1.38e-06  6.83e-07    79s
 130   1.16367235e+03  1.16370131e+03  5.31e-04 1.28e-06  6.36e-07    80s
 131   1.16367204e+03  1.16370020e+03  5.54e-04 1.23e-06  6.17e-07    80s
 132   1.16367214e+03  1.16369988e+03  5.56e-04 1.22e-06  6.11e-07    81s
 133   1.16367218e+03  1.16369904e+03  5.46e-04 1.18e-06  5.96e-07    81s
 134   1.16367204e+03  1.16369894e+03  5.39e-04 1.18e-06  5.94e-07    82s
 135   1.16367176e+03  1.16369888e+03  5.29e-04 1.18e-06  5.93e-07    82s
 136   1.16367179e+03  1.16369888e+03  5.25e-04 1.18e-06  5.93e-07    83s
 137   1.16367121e+03  1.16369689e+03  4.60e-04 1.09e-06  5.52e-07    84s
 138   1.16367114e+03  1.16369671e+03  4.56e-04 1.08e-06  5.48e-07    85s
 139   1.16367104e+03  1.16369614e+03  4.31e-04 1.06e-06  5.39e-07    85s
 140   1.16367077e+03  1.16369587e+03  3.92e-04 1.04e-06  5.30e-07    86s
 141   1.16366999e+03  1.16369375e+03  3.66e-04 9.49e-07  4.77e-07    88s
 142   1.16367072e+03  1.16369342e+03  3.41e-04 9.35e-07  4.69e-07    88s
 143   1.16367041e+03  1.16369271e+03  3.25e-04 9.04e-07  4.52e-07    89s
 144   1.16367021e+03  1.16369266e+03  3.18e-04 9.01e-07  4.50e-07    90s
 145   1.16366916e+03  1.16369266e+03  3.50e-04 9.01e-07  4.50e-07    90s
 146   1.16366911e+03  1.16369228e+03  3.54e-04 8.84e-07  4.43e-07    91s
 147   1.16366917e+03  1.16369218e+03  3.53e-04 8.80e-07  4.41e-07    92s
 148   1.16366922e+03  1.16369200e+03  3.40e-04 8.72e-07  4.36e-07    92s
 149   1.16366950e+03  1.16369200e+03  3.37e-04 8.72e-07  4.36e-07    93s
 150   1.16366956e+03  1.16369171e+03  3.10e-04 8.59e-07  4.31e-07    94s
 151   1.16367007e+03  1.16369171e+03  3.46e-04 8.59e-07  4.31e-07    94s

Barrier performed 151 iterations in 94.20 seconds (94.85 work units)
Sub-optimal termination - objective 1.16368530e+03

/user/bnickson/GitHub/LUVex_TelAps/aplc_optimization/surveys/usort_offaxis_survey_N0128_telserv3/FPM38_IWA37/drivers/07_USORT_N128_FPM380M0150_IWA0370_OWA01400_C10_BW15_Nlam5_LS_ID_ID00_ODOD09_ls_0_ovsamp16_N.py:102: DeprecationWarning: circular_aperture is deprecated. Its new name is make_circular_aperture.
  dark_zone_mask = circular_aperture(img_owa * 2)(focal_grid) - circular_aperture(img_iwa * 2)(focal_grid)
/user/bnickson/GitHub/LUVex_TelAps/aplc_optimization/surveys/usort_offaxis_survey_N0128_telserv3/FPM38_IWA37/drivers/07_USORT_N128_FPM380M0150_IWA0370_OWA01400_C10_BW15_Nlam5_LS_ID_ID00_ODOD09_ls_0_ovsamp16_N.py:110: DeprecationWarning: circular_aperture is deprecated. Its new name is make_circular_aperture.
  focal_plane_mask = 1 - evaluate_supersampled(circular_aperture(2 * fpm_radius), focal_mask_grid, 8)
WARNING: VerifyWarning: Keyword name 'LS_ALIGN_TOl' is greater than 8 characters or contains characters not allowed by the FITS standard; a HIERARCH card will be created. [astropy.io.fits.card]
WARNING: VerifyWarning: Keyword name 'LS_NUM_STOPS' is greater than 8 characters or contains characters not allowed by the FITS standard; a HIERARCH card will be created. [astropy.io.fits.card]
WARNING: VerifyWarning: Keyword name 'PROG_START' is greater than 8 characters or contains characters not allowed by the FITS standard; a HIERARCH card will be created. [astropy.io.fits.card]
WARNING: VerifyWarning: Keyword name 'PROG_EDGE' is greater than 8 characters or contains characters not allowed by the FITS standard; a HIERARCH card will be created. [astropy.io.fits.card]
WARNING: VerifyWarning: Keyword name 'THRPT_ITER' is greater than 8 characters or contains characters not allowed by the FITS standard; a HIERARCH card will be created. [astropy.io.fits.card]
WARNING: VerifyWarning: Keyword name 'THRPT_ESTIM' is greater than 8 characters or contains characters not allowed by the FITS standard; a HIERARCH card will be created. [astropy.io.fits.card]
WARNING: VerifyWarning: Keyword name 'MAX_THRPT' is greater than 8 characters or contains characters not allowed by the FITS standard; a HIERARCH card will be created. [astropy.io.fits.card]
WARNING: VerifyWarning: Keyword name 'SLV_THRDS' is greater than 8 characters or contains characters not allowed by the FITS standard; a HIERARCH card will be created. [astropy.io.fits.card]
WARNING: VerifyWarning: Keyword name 'SLV_XOVER' is greater than 8 characters or contains characters not allowed by the FITS standard; a HIERARCH card will be created. [astropy.io.fits.card]
Optimization finished!
